Running for instance ./models/rc101.txt
Generating routes...
Atingindo numero maximo de execucoes. abrindo alpha
Atingindo numero maximo de execucoes. abrindo alpha
Maximo de execucoes sem resultados atingido. 520 rotas geradas
Execution time:  27.78966  seconds
Academic license - for non-commercial use only
Warning: constraint name "Cliente esta na rota x1" has a space
Optimize a model with 26 rows, 520 columns and 2230 nonzeros
Variable types: 0 continuous, 520 integer (0 binary)
Coefficient statistics:
  Matrix range     [1e+00, 1e+00]
  Objective range  [6e+01, 2e+02]
  Bounds range     [1e+00, 1e+00]
  RHS range        [1e+00, 2e+01]
Found heuristic solution: objective 1278.5040333
Presolve removed 1 rows and 24 columns
Presolve time: 0.01s
Presolved: 25 rows, 496 columns, 1619 nonzeros
Found heuristic solution: objective 1183.1366989
Variable types: 0 continuous, 496 integer (496 binary)

Root relaxation: objective 8.387655e+02, 42 iterations, 0.00 seconds

    Nodes    |    Current Node    |     Objective Bounds      |     Work
 Expl Unexpl |  Obj  Depth IntInf | Incumbent    BestBd   Gap | It/Node Time

     0     0  838.76553    0    4 1183.13670  838.76553  29.1%     -    0s
H    0     0                     897.7771486  838.76553  6.57%     -    0s
H    0     0                     848.9440006  838.76553  1.20%     -    0s
H    0     0                     846.5762746  838.76553  0.92%     -    0s
     0     0  841.20260    0    4  846.57627  841.20260  0.63%     -    0s
H    0     0                     843.2324032  841.20260  0.24%     -    0s
     0     0     cutoff    0       843.23240  843.23240  0.00%     -    0s

Explored 1 nodes (49 simplex iterations) in 0.01 seconds
Thread count was 8 (of 8 available processors)

Solution count 6: 843.232 846.576 848.944 ... 1272.88

Optimal solution found (tolerance 1.00e-04)
Best objective 8.432324032454e+02, best bound 8.432324032454e+02, gap 0.0000%

Routes:
18
19 20
22
12 10
11 9 13
14 15 16 17
2 7 6 4
23 25
21 24
5 8 3 1

Distance: 843.232403245
Execution time:  27.846806  seconds
